NAME : rand265436
COMMENT: random generated with id 265436
TYPE : TSP
DIMENSION : 6
EDGE_WEIGHT_TYPE : EUC_2D
NODE_COORD_SECTION
1 3.241579 0.661456
2 1.009701 1.767791
3 3.936812 2.084182
4 2.857542 0.973055
5 0.505693 0.154942
6 1.446046 4.745035
EOF
